PARAMETER_FILE = even/even_uncomplete_graph_new/seg/par/random50.par
PROBLEM_FILE = even/even_uncomplete_graph_new/seg/mat/random50.tsp
Successes/Runs = 0/10
Cost.min = 578, Cost.avg = 578.00, Cost.max = 578
Gap.min = 0.0000%, Gap.avg = 0.0000%, Gap.max = 0.0000%
Trials.min = 1000, Trials.avg = 1000.0, Trials.max = 1000
Time.min = 0.10 sec., Time.avg = 0.13 sec., Time.max = 0.14 sec.
Time.total = 1.31 sec.
